100 8
845 579
755 631
689 458
811 593
617 413
847 784
366 463
729 569
219 433
578 313
241 89
776 491
508 840
576 323
493 706
764 597
487 703
606 517
236 424
720 691
602 282
569 858
830 569
745 747
328 392
329 41
513 555
842 188
73 738
497 207
469 601
604 778
841 590
726 682
619 282
793 180
497 236
507 607
639 831
278 406
450 230
576 949
592 801
163 396
771 187
789 709
287 447
765 686
500 429
551 893
493 647
807 772
564 355
676 468
631 440
102 831
602 424
639 420
498 231
647 910
821 864
802 183
470 566
318 517
508 344
814 733
848 227
655 692
371 419
896 272
318 513
336 86
362 467
800 447
523 964
630 250
407 371
596 844
803 749
599 235
180 419
618 577
730 307
876 212
710 206
612 399
625 262
898 262
810 686
72 702
483 347
824 706
140 660
648 294
456 506
587 666
66 841
665 416
589 351
49 674
